c DCNF-Autarky [version 0.0.1]. 
c Copyright (c) 2018-2019 Swansea University. 
c 
c Input QBF/DQBF path: Castellini18//toilet_c_08_05.3.qdimacs
c Output SAT Translation Path: /tmp/toilet_c_08_05.3.qdimacs-dcnfAutarky.dimacs
c Input Clause Count (tautology free): 1369
c
c Performing E1-Autarky iteration.
c Remaining clauses count after E-Reduction: 1109
c
c Performing A1-Autarky iteration.
c Running Lingeling ... 
c
c Remaining clauses count after A-Reduction: 1109
c
c Input Parameter (command line, file): 
c input filename   Castellini18//toilet_c_08_05.3.qdimacs
c output filename  /tmp/toilet_c_08_05.3.qdimacs-dcnfAutarky.dimacs
c autarky level    1
c conformity level 0
c encoding type    2
c no.of var        201
c no.of clauses    1369
c no.of taut cls   0
c 
c Output Parameters: 
c remaining no.of clauses  1109
c
c filename pn pc autarky ntaut rpa rpe rpcdiff result
c "Castellini18//toilet_c_08_05.3.qdimacs" 201 1369 "E1+A1" 0 3 153 260 "RED" 
p cnf 201 1109
e 35 36 37 38 39 40 41 42 43 44 45 46 47 48 49 50 51 52 53 54 55 56 57 58 59 60 61 62 63 64 65 66 67 68 69 70 71 72 73 74 75 76 77 78 79 80 81 82 83 84 85 86 87 88 89 90 91 92 93 94 95 96 97 98 99 100 101 102 103 104 105 106 107 108 109 110 111 112 113 114 115 116 117 118 119 120 121 122 123 124 125 126 127 128 129 130 131 132 133 134 135 136 137 138 139 140 141 142 143 144 145 146 147 148 149 150 151 152 153 154 155 156 157 158 159 160 161 162 163 164 165 166 167 168 169 0
a 179 178 180 0
e 1 2 3 4 5 6 7 8 9 10 11 12 13 14 15 16 17 18 19 20 21 22 23 24 25 26 27 28 29 30 31 32 33 34 170 171 172 173 174 175 176 177 181 182 183 184 185 186 187 188 189 190 191 192 193 194 195 196 197 198 199 200 201 0
-178 -179 -181 180 0
-178 -179 -182 180 0
-178 -179 -183 180 0
-178 -179 -184 180 0
-178 -179 -185 180 0
-178 -179 180 186 0
-178 -179 -187 180 0
-178 -179 -188 180 0
-179 -180 -181 178 0
-179 -180 -182 178 0
-179 -180 -183 178 0
-179 -180 -184 178 0
-179 -180 178 185 0
-179 -180 -186 178 0
-179 -180 -187 178 0
-179 -180 -188 178 0
-179 -181 178 180 0
-179 -182 178 180 0
-179 -183 178 180 0
-179 178 180 184 0
-179 -185 178 180 0
-179 -186 178 180 0
-179 -187 178 180 0
-179 -188 178 180 0
-178 -180 -181 179 0
-178 -180 -182 179 0
-178 -180 179 183 0
-178 -180 -184 179 0
-178 -180 -185 179 0
-178 -180 -186 179 0
-178 -180 -187 179 0
-178 -180 -188 179 0
-178 -181 179 180 0
-178 179 180 182 0
-178 -183 179 180 0
-178 -184 179 180 0
-178 -185 179 180 0
-178 -186 179 180 0
-178 -187 179 180 0
-178 -188 179 180 0
-180 178 179 181 0
-180 -182 178 179 0
-180 -183 178 179 0
-180 -184 178 179 0
-180 -185 178 179 0
-180 -186 178 179 0
-180 -187 178 179 0
-180 -188 178 179 0
-181 178 179 180 0
-182 178 179 180 0
-183 178 179 180 0
-184 178 179 180 0
-185 178 179 180 0
-186 178 179 180 0
-187 178 179 180 0
178 179 180 188 0
-178 -179 -180 -181 0
-178 -179 -180 -182 0
-178 -179 -180 -183 0
-178 -179 -180 -184 0
-178 -179 -180 -185 0
-178 -179 -180 -186 0
-178 -179 -180 187 0
-178 -179 -180 -188 0
-189 0
-190 0
-191 0
-192 0
-193 0
-194 0
-195 0
-196 0
-197 0
-198 0
-199 0
-200 0
-201 0
-35 -201 0
-35 -193 0
-3 -36 0
-1 -36 0
-38 -194 0
-38 -201 0
-6 -39 0
-3 -39 0
-41 -195 0
-41 -201 0
-9 -42 0
-3 -42 0
-44 -196 0
-44 -201 0
-12 -45 0
-3 -45 0
-47 -197 0
-47 -201 0
-15 -48 0
-3 -48 0
-50 -198 0
-50 -201 0
-18 -51 0
-3 -51 0
-53 -199 0
-53 -201 0
-21 -54 0
-3 -54 0
-56 -200 0
-56 -201 0
-24 -58 0
-3 -58 0
-62 -189 0
-62 -193 0
-27 -63 0
-1 -63 0
-65 -189 0
-65 -194 0
-27 -66 0
-6 -66 0
-68 -189 0
-68 -195 0
-27 -69 0
-9 -69 0
-71 -189 0
-71 -196 0
-27 -72 0
-12 -72 0
-74 -189 0
-74 -197 0
-27 -75 0
-15 -75 0
-77 -189 0
-77 -198 0
-27 -78 0
-18 -78 0
-80 -189 0
-80 -199 0
-27 -81 0
-21 -81 0
-83 -189 0
-83 -200 0
-27 -85 0
-24 -85 0
-89 -190 0
-89 -193 0
-29 -90 0
-1 -90 0
-92 -190 0
-92 -194 0
-29 -93 0
-6 -93 0
-95 -190 0
-95 -195 0
-29 -96 0
-9 -96 0
-98 -190 0
-98 -196 0
-29 -99 0
-12 -99 0
-101 -190 0
-101 -197 0
-29 -102 0
-15 -102 0
-104 -190 0
-104 -198 0
-29 -105 0
-18 -105 0
-107 -190 0
-107 -199 0
-29 -108 0
-21 -108 0
-110 -190 0
-110 -200 0
-29 -112 0
-24 -112 0
-116 -191 0
-116 -193 0
-31 -117 0
-1 -117 0
-119 -191 0
-119 -194 0
-31 -120 0
-6 -120 0
-122 -191 0
-122 -195 0
-31 -123 0
-9 -123 0
-125 -191 0
-125 -196 0
-31 -126 0
-12 -126 0
-128 -191 0
-128 -197 0
-31 -129 0
-15 -129 0
-131 -191 0
-131 -198 0
-31 -132 0
-18 -132 0
-134 -191 0
-134 -199 0
-31 -135 0
-21 -135 0
-137 -191 0
-137 -200 0
-31 -139 0
-24 -139 0
-143 -192 0
-143 -193 0
-33 -144 0
-1 -144 0
-146 -192 0
-146 -194 0
-33 -147 0
-6 -147 0
-149 -192 0
-149 -195 0
-33 -150 0
-9 -150 0
-152 -192 0
-152 -196 0
-33 -153 0
-12 -153 0
-155 -192 0
-155 -197 0
-33 -156 0
-15 -156 0
-158 -192 0
-158 -198 0
-33 -159 0
-18 -159 0
-161 -192 0
-161 -199 0
-33 -162 0
-21 -162 0
-164 -192 0
-164 -200 0
-33 -166 0
-24 -166 0
-57 201 0
-59 3 0
-84 189 0
-86 27 0
-111 190 0
-113 29 0
-138 191 0
-140 31 0
-165 192 0
-167 33 0
-35 3 0
-5 -35 0
-35 1 0
-36 4 0
-36 -170 0
-36 2 0
-38 6 0
-8 -38 0
-38 3 0
-39 7 0
-39 -171 0
-39 4 0
-41 9 0
-11 -41 0
-41 3 0
-42 10 0
-42 -172 0
-42 4 0
-44 12 0
-14 -44 0
-44 3 0
-45 13 0
-45 -173 0
-45 4 0
-47 15 0
-17 -47 0
-47 3 0
-48 16 0
-48 -174 0
-48 4 0
-50 18 0
-20 -50 0
-50 3 0
-51 19 0
-51 -175 0
-51 4 0
-53 21 0
-23 -53 0
-53 3 0
-54 22 0
-54 -176 0
-54 4 0
-56 24 0
-26 -56 0
-56 3 0
-58 25 0
-58 -177 0
-58 4 0
-62 27 0
-5 -62 0
-62 1 0
-63 28 0
-63 -170 0
-63 2 0
-65 27 0
-8 -65 0
-65 6 0
-66 28 0
-66 -171 0
-66 7 0
-68 27 0
-11 -68 0
-68 9 0
-69 28 0
-69 -172 0
-69 10 0
-71 27 0
-14 -71 0
-71 12 0
-72 28 0
-72 -173 0
-72 13 0
-74 27 0
-17 -74 0
-74 15 0
-75 28 0
-75 -174 0
-75 16 0
-77 27 0
-20 -77 0
-77 18 0
-78 28 0
-78 -175 0
-78 19 0
-80 27 0
-23 -80 0
-80 21 0
-81 28 0
-81 -176 0
-81 22 0
-83 27 0
-26 -83 0
-83 24 0
-85 28 0
-85 -177 0
-85 25 0
-89 29 0
-5 -89 0
-89 1 0
-90 30 0
-90 -170 0
-90 2 0
-92 29 0
-8 -92 0
-92 6 0
-93 30 0
-93 -171 0
-93 7 0
-95 29 0
-11 -95 0
-95 9 0
-96 30 0
-96 -172 0
-96 10 0
-98 29 0
-14 -98 0
-98 12 0
-99 30 0
-99 -173 0
-99 13 0
-101 29 0
-17 -101 0
-101 15 0
-102 30 0
-102 -174 0
-102 16 0
-104 29 0
-20 -104 0
-104 18 0
-105 30 0
-105 -175 0
-105 19 0
-107 29 0
-23 -107 0
-107 21 0
-108 30 0
-108 -176 0
-108 22 0
-110 29 0
-26 -110 0
-110 24 0
-112 30 0
-112 -177 0
-112 25 0
-116 31 0
-5 -116 0
-116 1 0
-117 32 0
-117 -170 0
-117 2 0
-119 31 0
-8 -119 0
-119 6 0
-120 32 0
-120 -171 0
-120 7 0
-122 31 0
-11 -122 0
-122 9 0
-123 32 0
-123 -172 0
-123 10 0
-125 31 0
-14 -125 0
-125 12 0
-126 32 0
-126 -173 0
-126 13 0
-128 31 0
-17 -128 0
-128 15 0
-129 32 0
-129 -174 0
-129 16 0
-131 31 0
-20 -131 0
-131 18 0
-132 32 0
-132 -175 0
-132 19 0
-134 31 0
-23 -134 0
-134 21 0
-135 32 0
-135 -176 0
-135 22 0
-137 31 0
-26 -137 0
-137 24 0
-139 32 0
-139 -177 0
-139 25 0
-143 33 0
-5 -143 0
-143 1 0
-144 34 0
-144 -170 0
-144 2 0
-146 33 0
-8 -146 0
-146 6 0
-147 34 0
-147 -171 0
-147 7 0
-149 33 0
-11 -149 0
-149 9 0
-150 34 0
-150 -172 0
-150 10 0
-152 33 0
-14 -152 0
-152 12 0
-153 34 0
-153 -173 0
-153 13 0
-155 33 0
-17 -155 0
-155 15 0
-156 34 0
-156 -174 0
-156 16 0
-158 33 0
-20 -158 0
-158 18 0
-159 34 0
-159 -175 0
-159 19 0
-161 33 0
-23 -161 0
-161 21 0
-162 34 0
-162 -176 0
-162 22 0
-164 33 0
-26 -164 0
-164 24 0
-166 34 0
-166 -177 0
-166 25 0
-3 -57 0
-4 -59 0
-27 -84 0
-28 -86 0
-29 -111 0
-30 -113 0
-31 -138 0
-32 -140 0
-33 -165 0
-34 -167 0
-1 35 62 89 116 143 193 0
-2 1 36 63 90 117 144 0
-193 1 0
-1 2 0
-3 35 38 41 44 47 50 53 56 201 0
-4 3 36 39 42 45 48 51 54 58 0
-201 3 57 0
-3 4 59 0
-5 188 0
-170 5 0
-188 5 35 62 89 116 143 0
-5 36 63 90 117 144 170 0
-6 38 65 92 119 146 194 0
-7 6 39 66 93 120 147 0
-194 6 0
-6 7 0
-8 181 0
-171 8 0
-181 8 38 65 92 119 146 0
-8 39 66 93 120 147 171 0
-9 41 68 95 122 149 195 0
-10 9 42 69 96 123 150 0
-195 9 0
-9 10 0
-11 182 0
-172 11 0
-182 11 41 68 95 122 149 0
-11 42 69 96 123 150 172 0
-12 44 71 98 125 152 196 0
-13 12 45 72 99 126 153 0
-196 12 0
-12 13 0
-14 183 0
-173 14 0
-183 14 44 71 98 125 152 0
-14 45 72 99 126 153 173 0
-15 47 74 101 128 155 197 0
-16 15 48 75 102 129 156 0
-197 15 0
-15 16 0
-17 184 0
-174 17 0
-184 17 47 74 101 128 155 0
-17 48 75 102 129 156 174 0
-18 50 77 104 131 158 198 0
-19 18 51 78 105 132 159 0
-198 18 0
-18 19 0
-20 185 0
-175 20 0
-185 20 50 77 104 131 158 0
-20 51 78 105 132 159 175 0
-21 53 80 107 134 161 199 0
-22 21 54 81 108 135 162 0
-199 21 0
-21 22 0
-23 186 0
-176 23 0
-186 23 53 80 107 134 161 0
-23 54 81 108 135 162 176 0
-24 56 83 110 137 164 200 0
-25 24 58 85 112 139 166 0
-200 24 0
-24 25 0
-26 187 0
-177 26 0
-187 26 56 83 110 137 164 0
-26 58 85 112 139 166 177 0
-27 62 65 68 71 74 77 80 83 189 0
-28 27 63 66 69 72 75 78 81 85 0
-189 27 84 0
-27 28 86 0
-29 89 92 95 98 101 104 107 110 190 0
-30 29 90 93 96 99 102 105 108 112 0
-190 29 111 0
-29 30 113 0
-31 116 119 122 125 128 131 134 137 191 0
-32 31 117 120 123 126 129 132 135 139 0
-191 31 138 0
-31 32 140 0
-33 143 146 149 152 155 158 161 164 192 0
-34 33 144 147 150 153 156 159 162 166 0
-192 33 165 0
-33 34 167 0
-35 -38 0
-36 -39 0
-35 -41 0
-36 -42 0
-35 -44 0
-36 -45 0
-35 -47 0
-36 -48 0
-35 -50 0
-36 -51 0
-35 -53 0
-36 -54 0
-35 -56 0
-36 -58 0
-35 -62 0
-36 -63 0
-35 -89 0
-36 -90 0
-35 -116 0
-36 -117 0
-35 -143 0
-36 -144 0
-35 -57 0
-36 -59 0
-38 -41 0
-39 -42 0
-38 -44 0
-39 -45 0
-38 -47 0
-39 -48 0
-38 -50 0
-39 -51 0
-38 -53 0
-39 -54 0
-38 -56 0
-39 -58 0
-38 -65 0
-39 -66 0
-38 -92 0
-39 -93 0
-38 -119 0
-39 -120 0
-38 -146 0
-39 -147 0
-38 -57 0
-39 -59 0
-41 -44 0
-42 -45 0
-41 -47 0
-42 -48 0
-41 -50 0
-42 -51 0
-41 -53 0
-42 -54 0
-41 -56 0
-42 -58 0
-41 -68 0
-42 -69 0
-41 -95 0
-42 -96 0
-41 -122 0
-42 -123 0
-41 -149 0
-42 -150 0
-41 -57 0
-42 -59 0
-44 -47 0
-45 -48 0
-44 -50 0
-45 -51 0
-44 -53 0
-45 -54 0
-44 -56 0
-45 -58 0
-44 -71 0
-45 -72 0
-44 -98 0
-45 -99 0
-44 -125 0
-45 -126 0
-44 -152 0
-45 -153 0
-44 -57 0
-45 -59 0
-47 -50 0
-48 -51 0
-47 -53 0
-48 -54 0
-47 -56 0
-48 -58 0
-47 -74 0
-48 -75 0
-47 -101 0
-48 -102 0
-47 -128 0
-48 -129 0
-47 -155 0
-48 -156 0
-47 -57 0
-48 -59 0
-50 -53 0
-51 -54 0
-50 -56 0
-51 -58 0
-50 -77 0
-51 -78 0
-50 -104 0
-51 -105 0
-50 -131 0
-51 -132 0
-50 -158 0
-51 -159 0
-50 -57 0
-51 -59 0
-53 -56 0
-54 -58 0
-53 -80 0
-54 -81 0
-53 -107 0
-54 -108 0
-53 -134 0
-54 -135 0
-53 -161 0
-54 -162 0
-53 -57 0
-54 -59 0
-56 -83 0
-58 -85 0
-56 -110 0
-58 -112 0
-56 -137 0
-58 -139 0
-56 -164 0
-58 -166 0
-56 -57 0
-58 -59 0
-62 -65 0
-63 -66 0
-62 -68 0
-63 -69 0
-62 -71 0
-63 -72 0
-62 -74 0
-63 -75 0
-62 -77 0
-63 -78 0
-62 -80 0
-63 -81 0
-62 -83 0
-63 -85 0
-62 -89 0
-63 -90 0
-62 -116 0
-63 -117 0
-62 -143 0
-63 -144 0
-62 -84 0
-63 -86 0
-65 -68 0
-66 -69 0
-65 -71 0
-66 -72 0
-65 -74 0
-66 -75 0
-65 -77 0
-66 -78 0
-65 -80 0
-66 -81 0
-65 -83 0
-66 -85 0
-65 -92 0
-66 -93 0
-65 -119 0
-66 -120 0
-65 -146 0
-66 -147 0
-65 -84 0
-66 -86 0
-68 -71 0
-69 -72 0
-68 -74 0
-69 -75 0
-68 -77 0
-69 -78 0
-68 -80 0
-69 -81 0
-68 -83 0
-69 -85 0
-68 -95 0
-69 -96 0
-68 -122 0
-69 -123 0
-68 -149 0
-69 -150 0
-68 -84 0
-69 -86 0
-71 -74 0
-72 -75 0
-71 -77 0
-72 -78 0
-71 -80 0
-72 -81 0
-71 -83 0
-72 -85 0
-71 -98 0
-72 -99 0
-71 -125 0
-72 -126 0
-71 -152 0
-72 -153 0
-71 -84 0
-72 -86 0
-74 -77 0
-75 -78 0
-74 -80 0
-75 -81 0
-74 -83 0
-75 -85 0
-74 -101 0
-75 -102 0
-74 -128 0
-75 -129 0
-74 -155 0
-75 -156 0
-74 -84 0
-75 -86 0
-77 -80 0
-78 -81 0
-77 -83 0
-78 -85 0
-77 -104 0
-78 -105 0
-77 -131 0
-78 -132 0
-77 -158 0
-78 -159 0
-77 -84 0
-78 -86 0
-80 -83 0
-81 -85 0
-80 -107 0
-81 -108 0
-80 -134 0
-81 -135 0
-80 -161 0
-81 -162 0
-80 -84 0
-81 -86 0
-83 -110 0
-85 -112 0
-83 -137 0
-85 -139 0
-83 -164 0
-85 -166 0
-83 -84 0
-85 -86 0
-89 -92 0
-90 -93 0
-89 -95 0
-90 -96 0
-89 -98 0
-90 -99 0
-89 -101 0
-90 -102 0
-89 -104 0
-90 -105 0
-89 -107 0
-90 -108 0
-89 -110 0
-90 -112 0
-89 -116 0
-90 -117 0
-89 -143 0
-90 -144 0
-89 -111 0
-90 -113 0
-92 -95 0
-93 -96 0
-92 -98 0
-93 -99 0
-92 -101 0
-93 -102 0
-92 -104 0
-93 -105 0
-92 -107 0
-93 -108 0
-92 -110 0
-93 -112 0
-92 -119 0
-93 -120 0
-92 -146 0
-93 -147 0
-92 -111 0
-93 -113 0
-95 -98 0
-96 -99 0
-95 -101 0
-96 -102 0
-95 -104 0
-96 -105 0
-95 -107 0
-96 -108 0
-95 -110 0
-96 -112 0
-95 -122 0
-96 -123 0
-95 -149 0
-96 -150 0
-95 -111 0
-96 -113 0
-98 -101 0
-99 -102 0
-98 -104 0
-99 -105 0
-98 -107 0
-99 -108 0
-98 -110 0
-99 -112 0
-98 -125 0
-99 -126 0
-98 -152 0
-99 -153 0
-98 -111 0
-99 -113 0
-101 -104 0
-102 -105 0
-101 -107 0
-102 -108 0
-101 -110 0
-102 -112 0
-101 -128 0
-102 -129 0
-101 -155 0
-102 -156 0
-101 -111 0
-102 -113 0
-104 -107 0
-105 -108 0
-104 -110 0
-105 -112 0
-104 -131 0
-105 -132 0
-104 -158 0
-105 -159 0
-104 -111 0
-105 -113 0
-107 -110 0
-108 -112 0
-107 -134 0
-108 -135 0
-107 -161 0
-108 -162 0
-107 -111 0
-108 -113 0
-110 -137 0
-112 -139 0
-110 -164 0
-112 -166 0
-110 -111 0
-112 -113 0
-116 -119 0
-117 -120 0
-116 -122 0
-117 -123 0
-116 -125 0
-117 -126 0
-116 -128 0
-117 -129 0
-116 -131 0
-117 -132 0
-116 -134 0
-117 -135 0
-116 -137 0
-117 -139 0
-116 -143 0
-117 -144 0
-116 -138 0
-117 -140 0
-119 -122 0
-120 -123 0
-119 -125 0
-120 -126 0
-119 -128 0
-120 -129 0
-119 -131 0
-120 -132 0
-119 -134 0
-120 -135 0
-119 -137 0
-120 -139 0
-119 -146 0
-120 -147 0
-119 -138 0
-120 -140 0
-122 -125 0
-123 -126 0
-122 -128 0
-123 -129 0
-122 -131 0
-123 -132 0
-122 -134 0
-123 -135 0
-122 -137 0
-123 -139 0
-122 -149 0
-123 -150 0
-122 -138 0
-123 -140 0
-125 -128 0
-126 -129 0
-125 -131 0
-126 -132 0
-125 -134 0
-126 -135 0
-125 -137 0
-126 -139 0
-125 -152 0
-126 -153 0
-125 -138 0
-126 -140 0
-128 -131 0
-129 -132 0
-128 -134 0
-129 -135 0
-128 -137 0
-129 -139 0
-128 -155 0
-129 -156 0
-128 -138 0
-129 -140 0
-131 -134 0
-132 -135 0
-131 -137 0
-132 -139 0
-131 -158 0
-132 -159 0
-131 -138 0
-132 -140 0
-134 -137 0
-135 -139 0
-134 -161 0
-135 -162 0
-134 -138 0
-135 -140 0
-137 -164 0
-139 -166 0
-137 -138 0
-139 -140 0
-143 -146 0
-144 -147 0
-143 -149 0
-144 -150 0
-143 -152 0
-144 -153 0
-143 -155 0
-144 -156 0
-143 -158 0
-144 -159 0
-143 -161 0
-144 -162 0
-143 -164 0
-144 -166 0
-143 -165 0
-144 -167 0
-146 -149 0
-147 -150 0
-146 -152 0
-147 -153 0
-146 -155 0
-147 -156 0
-146 -158 0
-147 -159 0
-146 -161 0
-147 -162 0
-146 -164 0
-147 -166 0
-146 -165 0
-147 -167 0
-149 -152 0
-150 -153 0
-149 -155 0
-150 -156 0
-149 -158 0
-150 -159 0
-149 -161 0
-150 -162 0
-149 -164 0
-150 -166 0
-149 -165 0
-150 -167 0
-152 -155 0
-153 -156 0
-152 -158 0
-153 -159 0
-152 -161 0
-153 -162 0
-152 -164 0
-153 -166 0
-152 -165 0
-153 -167 0
-155 -158 0
-156 -159 0
-155 -161 0
-156 -162 0
-155 -164 0
-156 -166 0
-155 -165 0
-156 -167 0
-158 -161 0
-159 -162 0
-158 -164 0
-159 -166 0
-158 -165 0
-159 -167 0
-161 -164 0
-162 -166 0
-161 -165 0
-162 -167 0
-164 -165 0
-166 -167 0
-170 0
-171 0
-172 0
-173 0
-174 0
-175 0
-176 0
-177 0
